problems/csplib-prob015/SchursLemma-models/noch/O2/lingeling/model_1_4-7-17-solution000001.eprime-solution
language ESSENCE' 1.0

letting boxes_PartitionOccurrence_FirstIndex be [1, 3, 7, 14, 15, 16, 17; int(1..7)]
letting boxes_PartitionOccurrence_NumParts be 7
letting boxes_PartitionOccurrence_PartSizes be [3, 6, 4, 1, 1, 1, 1; int(1..7)]
letting boxes_PartitionOccurrence_WhichPart be [1, 1, 2, 2, 2, 2, 3, 3, 3, 3, 1, 2, 2, 4, 5, 6, 7; int(1..17)]
