problems/csplib-prob015/SchursLemma-models/noch/O2/lingeling/model_1_4-7-17-solution000001.solution
language Essence 1.3

letting boxes be partition({1, 2, 11}, {3, 4, 5, 6, 12, 13}, {7, 8, 9, 10}, {14}, {15}, {16}, {17})
